c Exact Cover generated CNF. n=5 S=[[1, 2, 3, 4], [1, 3, 5], [4, 5], [5], [2, 4], [1]]
p cnf 11 41
1 0
2 0
3 0
4 0
5 0
-6 1 0
-6 2 0
-6 3 0
-6 4 0
-7 1 0
-7 3 0
-7 5 0
-8 4 0
-8 5 0
-9 5 0
-10 2 0
-10 4 0
-11 1 0
-1 6 7 11 0
-2 6 10 0
-3 6 7 0
-4 6 8 10 0
-5 7 8 9 0
-6 -7 0
-6 -8 0
-6 -10 0
-6 -11 0
-7 -6 0
-7 -8 0
-7 -9 0
-7 -11 0
-8 -6 0
-8 -7 0
-8 -9 0
-8 -10 0
-9 -7 0
-9 -8 0
-10 -6 0
-10 -8 0
-11 -6 0
-11 -7 0
